c SSAT file for PBN EPFL/random_control/router_distill_EPFL/random_control/router_miter written by probABC
p cnf 531 1326
r 0.500000 1 0
r 0.500000 2 0
r 0.500000 3 0
r 0.500000 4 0
r 0.500000 5 0
r 0.500000 6 0
r 0.500000 7 0
r 0.500000 8 0
r 0.500000 9 0
r 0.500000 10 0
r 0.500000 11 0
r 0.500000 12 0
r 0.500000 13 0
r 0.500000 14 0
r 0.500000 15 0
r 0.500000 16 0
r 0.500000 17 0
r 0.500000 18 0
r 0.500000 19 0
r 0.500000 20 0
r 0.500000 21 0
r 0.500000 22 0
r 0.500000 23 0
r 0.500000 24 0
r 0.500000 25 0
r 0.500000 26 0
r 0.500000 27 0
r 0.500000 28 0
r 0.500000 29 0
r 0.500000 30 0
r 0.500000 31 0
r 0.500000 32 0
r 0.500000 33 0
r 0.500000 34 0
r 0.500000 35 0
r 0.500000 36 0
r 0.500000 37 0
r 0.500000 38 0
r 0.500000 39 0
r 0.500000 40 0
r 0.500000 41 0
r 0.500000 42 0
r 0.500000 43 0
r 0.500000 44 0
r 0.500000 45 0
r 0.500000 46 0
r 0.500000 47 0
r 0.500000 48 0
r 0.500000 49 0
r 0.500000 50 0
r 0.500000 51 0
r 0.500000 52 0
r 0.500000 53 0
r 0.500000 54 0
r 0.500000 55 0
r 0.500000 56 0
r 0.500000 57 0
r 0.500000 58 0
r 0.500000 59 0
r 0.500000 60 0
r 0.125000 61 0
r 0.125000 62 0
r 0.125000 63 0
r 0.125000 64 0
r 0.125000 65 0
r 0.125000 66 0
r 0.125000 67 0
r 0.125000 68 0
r 0.125000 69 0
r 0.125000 70 0
r 0.125000 71 0
r 0.125000 72 0
r 0.125000 73 0
r 0.125000 74 0
r 0.125000 75 0
r 0.125000 76 0
r 0.125000 77 0
r 0.125000 78 0
r 0.125000 79 0
r 0.125000 80 0
r 0.125000 81 0
r 0.125000 82 0
r 0.125000 83 0
r 0.125000 84 0
r 0.125000 85 0
r 0.125000 86 0
r 0.125000 87 0
r 0.125000 88 0
r 0.125000 89 0
e 91 0
e 92 0
e 93 0
e 94 0
e 95 0
e 96 0
e 97 0
e 98 0
e 99 0
e 100 0
e 101 0
e 102 0
e 103 0
e 104 0
e 105 0
e 106 0
e 107 0
e 108 0
e 109 0
e 110 0
e 111 0
e 112 0
e 113 0
e 114 0
e 115 0
e 116 0
e 117 0
e 118 0
e 119 0
e 120 0
e 121 0
e 122 0
e 123 0
e 124 0
e 125 0
e 126 0
e 127 0
e 128 0
e 129 0
e 130 0
e 131 0
e 132 0
e 133 0
e 134 0
e 135 0
e 136 0
e 137 0
e 138 0
e 139 0
e 140 0
e 141 0
e 142 0
e 143 0
e 144 0
e 145 0
e 146 0
e 147 0
e 148 0
e 149 0
e 150 0
e 151 0
e 152 0
e 153 0
e 154 0
e 155 0
e 156 0
e 157 0
e 158 0
e 159 0
e 160 0
e 161 0
e 162 0
e 163 0
e 164 0
e 165 0
e 166 0
e 167 0
e 168 0
e 169 0
e 170 0
e 171 0
e 172 0
e 173 0
e 174 0
e 175 0
e 176 0
e 177 0
e 178 0
e 179 0
e 180 0
e 181 0
e 182 0
e 183 0
e 184 0
e 185 0
e 186 0
e 187 0
e 188 0
e 189 0
e 190 0
e 191 0
e 192 0
e 193 0
e 194 0
e 195 0
e 196 0
e 197 0
e 198 0
e 199 0
e 200 0
e 201 0
e 202 0
e 203 0
e 204 0
e 205 0
e 206 0
e 207 0
e 208 0
e 209 0
e 210 0
e 211 0
e 212 0
e 213 0
e 214 0
e 215 0
e 216 0
e 217 0
e 218 0
e 219 0
e 220 0
e 221 0
e 222 0
e 223 0
e 224 0
e 225 0
e 226 0
e 227 0
e 228 0
e 229 0
e 230 0
e 231 0
e 232 0
e 233 0
e 234 0
e 235 0
e 236 0
e 237 0
e 238 0
e 239 0
e 240 0
e 241 0
e 242 0
e 243 0
e 244 0
e 245 0
e 246 0
e 247 0
e 248 0
e 249 0
e 250 0
e 251 0
e 252 0
e 253 0
e 254 0
e 255 0
e 256 0
e 257 0
e 258 0
e 259 0
e 260 0
e 261 0
e 262 0
e 263 0
e 264 0
e 265 0
e 266 0
e 267 0
e 268 0
e 269 0
e 270 0
e 271 0
e 272 0
e 273 0
e 274 0
e 275 0
e 276 0
e 277 0
e 278 0
e 279 0
e 280 0
e 281 0
e 282 0
e 283 0
e 284 0
e 285 0
e 286 0
e 287 0
e 288 0
e 289 0
e 290 0
e 291 0
e 292 0
e 293 0
e 294 0
e 295 0
e 296 0
e 297 0
e 298 0
e 299 0
e 300 0
e 301 0
e 302 0
e 303 0
e 304 0
e 305 0
e 306 0
e 307 0
e 308 0
e 309 0
e 310 0
e 311 0
e 312 0
e 313 0
e 314 0
e 315 0
e 316 0
e 317 0
e 318 0
e 319 0
e 320 0
e 321 0
e 322 0
e 323 0
e 324 0
e 325 0
e 326 0
e 327 0
e 328 0
e 329 0
e 330 0
e 331 0
e 332 0
e 333 0
e 334 0
e 335 0
e 336 0
e 337 0
e 338 0
e 339 0
e 340 0
e 341 0
e 342 0
e 343 0
e 344 0
e 345 0
e 346 0
e 347 0
e 348 0
e 349 0
e 350 0
e 351 0
e 352 0
e 353 0
e 354 0
e 355 0
e 356 0
e 357 0
e 358 0
e 359 0
e 360 0
e 361 0
e 362 0
e 363 0
e 364 0
e 365 0
e 366 0
e 367 0
e 368 0
e 369 0
e 370 0
e 371 0
e 372 0
e 373 0
e 374 0
e 375 0
e 376 0
e 377 0
e 378 0
e 379 0
e 380 0
e 381 0
e 382 0
e 383 0
e 384 0
e 385 0
e 386 0
e 387 0
e 388 0
e 389 0
e 390 0
e 391 0
e 392 0
e 393 0
e 394 0
e 395 0
e 396 0
e 397 0
e 398 0
e 399 0
e 400 0
e 401 0
e 402 0
e 403 0
e 404 0
e 405 0
e 406 0
e 407 0
e 408 0
e 409 0
e 410 0
e 411 0
e 412 0
e 413 0
e 414 0
e 415 0
e 416 0
e 417 0
e 418 0
e 419 0
e 420 0
e 421 0
e 422 0
e 423 0
e 424 0
e 425 0
e 426 0
e 427 0
e 428 0
e 429 0
e 430 0
e 431 0
e 432 0
e 433 0
e 434 0
e 435 0
e 436 0
e 437 0
e 438 0
e 439 0
e 440 0
e 441 0
e 442 0
e 443 0
e 444 0
e 445 0
e 446 0
e 447 0
e 448 0
e 449 0
e 450 0
e 451 0
e 452 0
e 453 0
e 454 0
e 455 0
e 456 0
e 457 0
e 458 0
e 459 0
e 460 0
e 461 0
e 462 0
e 463 0
e 464 0
e 465 0
e 466 0
e 467 0
e 468 0
e 469 0
e 470 0
e 471 0
e 472 0
e 473 0
e 474 0
e 475 0
e 476 0
e 477 0
e 478 0
e 479 0
e 480 0
e 481 0
e 482 0
e 483 0
e 484 0
e 485 0
e 486 0
e 487 0
e 488 0
e 489 0
e 490 0
e 491 0
e 492 0
e 493 0
e 494 0
e 495 0
e 496 0
e 497 0
e 498 0
e 499 0
e 500 0
e 501 0
e 502 0
e 503 0
e 504 0
e 505 0
e 506 0
e 507 0
e 508 0
e 509 0
e 510 0
e 511 0
e 512 0
e 513 0
e 514 0
e 515 0
e 516 0
e 517 0
e 518 0
e 519 0
e 520 0
e 521 0
e 522 0
e 523 0
e 524 0
e 525 0
e 526 0
e 527 0
e 528 0
e 529 0
e 530 0
e 531 0
e 90 0
91 -28 -29 0
-91 28 0
-91 29 0
92 -30 -91 0
-92 30 0
-92 91 0
93 -25 -26 0
-93 25 0
-93 26 0
94 10 11 0
-94 -10 0
-94 -11 0
95 -12 94 0
-95 12 0
-95 -94 0
96 13 95 0
-96 -13 0
-96 -95 0
97 14 -96 0
-97 -14 0
-97 96 0
98 -15 97 0
-98 15 0
-98 -97 0
99 -16 -98 0
-99 16 0
-99 98 0
100 17 99 0
-100 -17 0
-100 -99 0
101 -18 100 0
-101 18 0
-101 -100 0
102 19 101 0
-102 -19 0
-102 -101 0
103 -21 102 0
-103 21 0
-103 -102 0
104 -20 -103 0
-104 20 0
-104 103 0
105 22 23 0
-105 -22 0
-105 -23 0
106 104 -105 0
-106 -104 0
-106 105 0
107 -24 106 0
-107 24 0
-107 -106 0
108 -93 -107 0
-108 93 0
-108 107 0
109 27 108 0
-109 -27 0
-109 -108 0
110 -92 109 0
-110 92 0
-110 -109 0
111 23 -24 0
-111 -23 0
-111 24 0
112 12 -94 0
-112 -12 0
-112 94 0
113 95 112 0
-113 -95 0
-113 -112 0
114 22 -103 0
-114 -22 0
-114 103 0
115 21 -22 0
-115 -21 0
-115 22 0
116 -102 -115 0
-116 102 0
-116 115 0
117 114 116 0
-117 -114 0
-117 -116 0
118 -19 98 0
-118 19 0
-118 -98 0
119 19 -98 0
-119 -19 0
-119 98 0
120 118 119 0
-120 -118 0
-120 -119 0
121 2 3 0
-121 -2 0
-121 -3 0
122 4 5 0
-122 -4 0
-122 -5 0
123 6 7 0
-123 -6 0
-123 -7 0
124 8 -123 0
-124 -8 0
-124 123 0
125 -121 -122 0
-125 121 0
-125 122 0
126 -124 -125 0
-126 124 0
-126 125 0
127 -27 -108 0
-127 27 0
-127 108 0
128 -13 -95 0
-128 13 0
-128 95 0
129 9 -10 0
-129 -9 0
-129 10 0
130 11 14 0
-130 -11 0
-130 -14 0
131 -15 -16 0
-131 15 0
-131 16 0
132 17 -18 0
-132 -17 0
-132 18 0
133 -20 -28 0
-133 20 0
-133 28 0
134 -132 -133 0
-134 132 0
-134 133 0
135 -130 -131 0
-135 130 0
-135 131 0
136 -93 -129 0
-136 93 0
-136 129 0
137 -111 -136 0
-137 111 0
-137 136 0
138 -134 -135 0
-138 134 0
-138 135 0
139 -137 -138 0
-139 137 0
-139 138 0
140 96 113 0
-140 -96 0
-140 -113 0
141 -126 128 0
-141 126 0
-141 -128 0
142 -140 -141 0
-142 140 0
-142 141 0
143 -139 -142 0
-143 139 0
-143 142 0
144 120 -143 0
-144 -120 0
-144 143 0
145 117 -144 0
-145 -117 0
-145 144 0
146 127 -145 0
-146 -127 0
-146 145 0
147 -110 146 0
-147 110 0
-147 -146 0
148 -14 96 0
-148 14 0
-148 -96 0
149 97 148 0
-149 -97 0
-149 -148 0
150 -1 -2 0
-150 1 0
-150 2 0
151 -3 -4 0
-151 3 0
-151 4 0
152 -5 -6 0
-152 5 0
-152 6 0
153 -7 -8 0
-153 7 0
-153 8 0
154 -9 -153 0
-154 9 0
-154 153 0
155 -151 -152 0
-155 151 0
-155 152 0
156 -150 -155 0
-156 150 0
-156 155 0
157 -154 -156 0
-157 154 0
-157 156 0
158 -113 -157 0
-158 113 0
-158 157 0
159 149 -158 0
-159 -149 0
-159 158 0
160 15 -97 0
-160 -15 0
-160 97 0
161 -20 -102 0
-161 20 0
-161 102 0
162 -19 20 0
-162 19 0
-162 -20 0
163 -101 -162 0
-163 101 0
-163 162 0
164 161 163 0
-164 -161 0
-164 -163 0
165 96 128 0
-165 -96 0
-165 -128 0
166 25 107 0
-166 -25 0
-166 -107 0
167 -25 -107 0
-167 25 0
-167 107 0
168 -16 17 0
-168 16 0
-168 -17 0
169 -18 -21 0
-169 18 0
-169 21 0
170 22 -26 0
-170 -22 0
-170 26 0
171 27 -170 0
-171 -27 0
-171 170 0
172 -168 -169 0
-172 168 0
-172 169 0
173 -94 -111 0
-173 94 0
-173 111 0
174 -172 -173 0
-174 172 0
-174 173 0
175 -92 -171 0
-175 92 0
-175 171 0
176 -174 -175 0
-176 174 0
-176 175 0
177 165 -176 0
-177 -165 0
-177 176 0
178 98 -177 0
-178 -98 0
-178 177 0
179 160 -178 0
-179 -160 0
-179 178 0
180 -159 -179 0
-180 159 0
-180 179 0
181 164 -180 0
-181 -164 0
-181 180 0
182 166 -181 0
-182 -166 0
-182 181 0
183 167 -182 0
-183 -167 0
-183 182 0
184 110 183 0
-184 -110 0
-184 -183 0
185 147 184 0
-185 -147 0
-185 -184 0
186 -1 -31 0
-186 1 0
-186 31 0
187 -55 -56 0
-187 55 0
-187 56 0
188 40 41 0
-188 -40 0
-188 -41 0
189 -42 188 0
-189 42 0
-189 -188 0
190 43 189 0
-190 -43 0
-190 -189 0
191 44 -190 0
-191 -44 0
-191 190 0
192 -45 191 0
-192 45 0
-192 -191 0
193 -46 -192 0
-193 46 0
-193 192 0
194 47 193 0
-194 -47 0
-194 -193 0
195 -48 194 0
-195 48 0
-195 -194 0
196 49 195 0
-196 -49 0
-196 -195 0
197 -50 196 0
-197 50 0
-197 -196 0
198 -51 -197 0
-198 51 0
-198 197 0
199 52 198 0
-199 -52 0
-199 -198 0
200 53 -199 0
-200 -53 0
-200 199 0
201 -54 200 0
-201 54 0
-201 -200 0
202 79 201 0
-202 -79 0
-202 -201 0
203 -79 -201 0
-203 79 0
-203 201 0
204 202 203 0
-204 -202 0
-204 -203 0
205 -187 -204 0
-205 187 0
-205 204 0
206 57 205 0
-206 -57 0
-206 -205 0
207 -52 -198 0
-207 52 0
-207 198 0
208 199 207 0
-208 -199 0
-208 -207 0
209 51 197 0
-209 -51 0
-209 -197 0
210 198 209 0
-210 -198 0
-210 -209 0
211 -47 -193 0
-211 47 0
-211 193 0
212 194 211 0
-212 -194 0
-212 -211 0
213 50 -196 0
-213 -50 0
-213 196 0
214 197 213 0
-214 -197 0
-214 -213 0
215 -48 -212 0
-215 48 0
-215 212 0
216 214 -215 0
-216 -214 0
-216 215 0
217 210 -216 0
-217 -210 0
-217 216 0
218 -208 -217 0
-218 208 0
-218 217 0
219 46 192 0
-219 -46 0
-219 -192 0
220 193 219 0
-220 -193 0
-220 -219 0
221 -44 190 0
-221 44 0
-221 -190 0
222 191 221 0
-222 -191 0
-222 -221 0
223 -80 -222 0
-223 80 0
-223 222 0
224 80 222 0
-224 -80 0
-224 -222 0
225 223 224 0
-225 -223 0
-225 -224 0
226 32 33 0
-226 -32 0
-226 -33 0
227 86 226 0
-227 -86 0
-227 -226 0
228 -43 -189 0
-228 43 0
-228 189 0
229 190 228 0
-229 -190 0
-229 -228 0
230 34 35 0
-230 -34 0
-230 -35 0
231 36 37 0
-231 -36 0
-231 -37 0
232 38 39 0
-232 -38 0
-232 -39 0
233 -40 41 0
-233 40 0
-233 -41 0
234 -232 -233 0
-234 232 0
-234 233 0
235 -230 -231 0
-235 230 0
-235 231 0
236 -234 -235 0
-236 234 0
-236 235 0
237 -229 -236 0
-237 229 0
-237 236 0
238 -86 -226 0
-238 86 0
-238 226 0
239 45 -191 0
-239 -45 0
-239 191 0
240 192 239 0
-240 -192 0
-240 -239 0
241 42 -188 0
-241 -42 0
-241 188 0
242 189 241 0
-242 -189 0
-242 -241 0
243 -56 -58 0
-243 56 0
-243 58 0
244 242 -243 0
-244 -242 0
-244 243 0
245 -53 199 0
-245 53 0
-245 -199 0
246 -49 -195 0
-246 49 0
-246 195 0
247 81 196 0
-247 -81 0
-247 -196 0
248 -246 247 0
-248 246 0
-248 -247 0
249 246 -247 0
-249 -246 0
-249 247 0
250 248 249 0
-250 -248 0
-250 -249 0
251 -57 -205 0
-251 57 0
-251 205 0
252 82 251 0
-252 -82 0
-252 -251 0
253 -82 -251 0
-253 82 0
-253 251 0
254 252 253 0
-254 -252 0
-254 -253 0
255 -55 227 0
-255 55 0
-255 -227 0
256 238 -255 0
-256 -238 0
-256 255 0
257 -244 -256 0
-257 244 0
-257 256 0
258 -237 -257 0
-258 237 0
-258 257 0
259 240 -258 0
-259 -240 0
-259 258 0
260 220 -259 0
-260 -220 0
-260 259 0
261 -225 -260 0
-261 225 0
-261 260 0
262 250 -261 0
-262 -250 0
-262 261 0
263 200 -262 0
-263 -200 0
-263 262 0
264 245 -263 0
-264 -245 0
-264 263 0
265 -218 -264 0
-265 218 0
-265 264 0
266 -204 -265 0
-266 204 0
-266 265 0
267 206 -266 0
-267 -206 0
-267 266 0
268 254 -267 0
-268 -254 0
-268 267 0
269 186 -268 0
-269 -186 0
-269 268 0
270 -58 -59 0
-270 58 0
-270 59 0
271 206 -270 0
-271 -206 0
-271 270 0
272 -60 -271 0
-272 60 0
-272 271 0
273 269 -272 0
-273 -269 0
-273 272 0
274 -187 -201 0
-274 187 0
-274 201 0
275 57 274 0
-275 -57 0
-275 -274 0
276 -60 -270 0
-276 60 0
-276 270 0
277 275 -276 0
-277 -275 0
-277 276 0
278 196 246 0
-278 -196 0
-278 -246 0
279 53 -54 0
-279 -53 0
-279 54 0
280 -57 201 0
-280 57 0
-280 -201 0
281 57 -201 0
-281 -57 0
-281 201 0
282 280 281 0
-282 -280 0
-282 -281 0
283 -55 -226 0
-283 55 0
-283 226 0
284 -279 -283 0
-284 279 0
-284 283 0
285 -244 -284 0
-285 244 0
-285 284 0
286 -222 -285 0
-286 222 0
-286 285 0
287 -237 -286 0
-287 237 0
-287 286 0
288 240 -287 0
-288 -240 0
-288 287 0
289 220 -288 0
-289 -220 0
-289 288 0
290 -278 -289 0
-290 278 0
-290 289 0
291 -218 -290 0
-291 218 0
-291 290 0
292 282 -291 0
-292 -282 0
-292 291 0
293 186 -292 0
-293 -186 0
-293 292 0
294 -277 293 0
-294 277 0
-294 -293 0
295 -273 294 0
-295 273 0
-295 -294 0
296 64 98 0
-296 -64 0
-296 -98 0
297 -64 -98 0
-297 64 0
-297 98 0
298 296 297 0
-298 -296 0
-298 -297 0
299 -16 -298 0
-299 16 0
-299 298 0
300 17 299 0
-300 -17 0
-300 -299 0
301 -68 300 0
-301 68 0
-301 -300 0
302 68 -300 0
-302 -68 0
-302 300 0
303 301 302 0
-303 -301 0
-303 -302 0
304 -18 -303 0
-304 18 0
-304 303 0
305 19 304 0
-305 -19 0
-305 -304 0
306 -20 305 0
-306 20 0
-306 -305 0
307 -69 306 0
-307 69 0
-307 -306 0
308 69 -306 0
-308 -69 0
-308 306 0
309 307 308 0
-309 -307 0
-309 -308 0
310 -21 309 0
-310 21 0
-310 -309 0
311 22 310 0
-311 -22 0
-311 -310 0
312 23 -311 0
-312 -23 0
-312 311 0
313 -24 312 0
-313 24 0
-313 -312 0
314 -25 -313 0
-314 25 0
-314 313 0
315 -26 -314 0
-315 26 0
-315 314 0
316 27 315 0
-316 -27 0
-316 -315 0
317 -92 316 0
-317 92 0
-317 -316 0
318 -28 316 0
-318 28 0
-318 -316 0
319 -27 -315 0
-319 27 0
-319 315 0
320 -19 -304 0
-320 19 0
-320 304 0
321 305 320 0
-321 -305 0
-321 -320 0
322 18 303 0
-322 -18 0
-322 -303 0
323 304 322 0
-323 -304 0
-323 -322 0
324 160 298 0
-324 -160 0
-324 -298 0
325 -10 -11 0
-325 10 0
-325 11 0
326 62 -325 0
-326 -62 0
-326 325 0
327 -62 325 0
-327 62 0
-327 -325 0
328 326 327 0
-328 -326 0
-328 -327 0
329 61 94 0
-329 -61 0
-329 -94 0
330 -328 -329 0
-330 328 0
-330 329 0
331 328 329 0
-331 -328 0
-331 -329 0
332 330 331 0
-332 -330 0
-332 -331 0
333 63 96 0
-333 -63 0
-333 -96 0
334 -128 333 0
-334 128 0
-334 -333 0
335 128 -333 0
-335 -128 0
-335 333 0
336 334 335 0
-336 -334 0
-336 -335 0
337 16 -298 0
-337 -16 0
-337 298 0
338 66 337 0
-338 -66 0
-338 -337 0
339 -66 -337 0
-339 66 0
-339 337 0
340 338 339 0
-340 -338 0
-340 -339 0
341 -16 298 0
-341 16 0
-341 -298 0
342 65 341 0
-342 -65 0
-342 -341 0
343 -65 -341 0
-343 65 0
-343 341 0
344 342 343 0
-344 -342 0
-344 -343 0
345 340 344 0
-345 -340 0
-345 -344 0
346 -67 345 0
-346 67 0
-346 -345 0
347 67 -345 0
-347 -67 0
-347 345 0
348 346 347 0
-348 -346 0
-348 -347 0
349 -17 -299 0
-349 17 0
-349 299 0
350 -303 349 0
-350 303 0
-350 -349 0
351 -77 126 0
-351 77 0
-351 -126 0
352 77 -126 0
-352 -77 0
-352 126 0
353 351 352 0
-353 -351 0
-353 -352 0
354 24 -312 0
-354 -24 0
-354 312 0
355 71 -354 0
-355 -71 0
-355 354 0
356 -71 354 0
-356 71 0
-356 -354 0
357 313 355 0
-357 -313 0
-357 -355 0
358 356 -357 0
-358 -356 0
-358 357 0
359 -26 314 0
-359 26 0
-359 -314 0
360 26 -314 0
-360 -26 0
-360 314 0
361 72 -360 0
-361 -72 0
-361 360 0
362 -72 360 0
-362 72 0
-362 -360 0
363 359 361 0
-363 -359 0
-363 -361 0
364 362 -363 0
-364 -362 0
-364 363 0
365 25 313 0
-365 -25 0
-365 -313 0
366 314 365 0
-366 -314 0
-366 -365 0
367 -23 311 0
-367 23 0
-367 -311 0
368 312 367 0
-368 -312 0
-368 -367 0
369 -22 -310 0
-369 22 0
-369 310 0
370 311 369 0
-370 -311 0
-370 -369 0
371 20 -305 0
-371 -20 0
-371 305 0
372 -309 371 0
-372 309 0
-372 -371 0
373 -21 -70 0
-373 21 0
-373 70 0
374 309 373 0
-374 -309 0
-374 -373 0
375 21 70 0
-375 -21 0
-375 -70 0
376 374 -375 0
-376 -374 0
-376 375 0
377 -374 375 0
-377 374 0
-377 -375 0
378 376 377 0
-378 -376 0
-378 -377 0
379 9 113 0
-379 -9 0
-379 -113 0
380 -149 -379 0
-380 149 0
-380 379 0
381 332 353 0
-381 -332 0
-381 -353 0
382 -380 -381 0
-382 380 0
-382 381 0
383 336 -382 0
-383 -336 0
-383 382 0
384 324 -383 0
-384 -324 0
-384 383 0
385 -350 -384 0
-385 350 0
-385 384 0
386 323 -385 0
-386 -323 0
-386 385 0
387 348 -386 0
-387 -348 0
-387 386 0
388 -321 -387 0
-388 321 0
-388 387 0
389 372 -388 0
-389 -372 0
-389 388 0
390 -370 -389 0
-390 370 0
-390 389 0
391 378 -390 0
-391 -378 0
-391 390 0
392 -368 -391 0
-392 368 0
-392 391 0
393 366 -392 0
-393 -366 0
-393 392 0
394 319 -393 0
-394 -319 0
-394 393 0
395 358 -394 0
-395 -358 0
-395 394 0
396 -318 -395 0
-396 318 0
-396 395 0
397 -364 -396 0
-397 364 0
-397 396 0
398 -78 397 0
-398 78 0
-398 -397 0
399 78 -397 0
-399 -78 0
-399 397 0
400 398 399 0
-400 -398 0
-400 -399 0
401 -10 400 0
-401 10 0
-401 -400 0
402 -317 401 0
-402 317 0
-402 -401 0
403 28 319 0
-403 -28 0
-403 -319 0
404 30 73 0
-404 -30 0
-404 -73 0
405 10 404 0
-405 -10 0
-405 -404 0
406 -74 -405 0
-406 74 0
-406 405 0
407 74 405 0
-407 -74 0
-407 -405 0
408 -29 406 0
-408 29 0
-408 -406 0
409 407 -408 0
-409 -407 0
-409 408 0
410 370 -409 0
-410 -370 0
-410 409 0
411 -378 -410 0
-411 378 0
-411 410 0
412 368 -411 0
-412 -368 0
-412 411 0
413 -366 -412 0
-413 366 0
-413 412 0
414 -358 -413 0
-414 358 0
-414 413 0
415 318 -414 0
-415 -318 0
-415 414 0
416 403 -415 0
-416 -403 0
-416 415 0
417 364 -416 0
-417 -364 0
-417 416 0
418 -75 417 0
-418 75 0
-418 -417 0
419 75 -417 0
-419 -75 0
-419 417 0
420 418 419 0
-420 -418 0
-420 -419 0
421 -323 350 0
-421 323 0
-421 -350 0
422 321 -421 0
-422 -321 0
-422 421 0
423 -372 -422 0
-423 372 0
-423 422 0
424 420 -423 0
-424 -420 0
-424 423 0
425 76 424 0
-425 -76 0
-425 -424 0
426 -76 -424 0
-426 76 0
-426 424 0
427 -159 -332 0
-427 159 0
-427 332 0
428 -336 -427 0
-428 336 0
-428 427 0
429 -324 -428 0
-429 324 0
-429 428 0
430 -348 -429 0
-430 348 0
-430 429 0
431 425 -430 0
-431 -425 0
-431 430 0
432 426 -431 0
-432 -426 0
-432 431 0
433 317 432 0
-433 -317 0
-433 -432 0
434 402 433 0
-434 -402 0
-434 -433 0
435 273 -294 0
-435 -273 0
-435 294 0
436 295 435 0
-436 -295 0
-436 -435 0
437 -434 -436 0
-437 434 0
-437 436 0
438 -185 437 0
-438 185 0
-438 -437 0
439 185 -434 0
-439 -185 0
-439 434 0
440 1 31 0
-440 -1 0
-440 -31 0
441 -292 -440 0
-441 292 0
-441 440 0
442 -277 441 0
-442 277 0
-442 -441 0
443 -199 -279 0
-443 199 0
-443 279 0
444 245 443 0
-444 -245 0
-444 -443 0
445 -40 -41 0
-445 40 0
-445 41 0
446 188 445 0
-446 -188 0
-446 -445 0
447 -32 -33 0
-447 32 0
-447 33 0
448 -34 -35 0
-448 34 0
-448 35 0
449 -36 -37 0
-449 36 0
-449 37 0
450 -38 -39 0
-450 38 0
-450 39 0
451 -449 -450 0
-451 449 0
-451 450 0
452 -447 -448 0
-452 447 0
-452 448 0
453 -451 -452 0
-453 451 0
-453 452 0
454 446 -453 0
-454 -446 0
-454 453 0
455 -242 -454 0
-455 242 0
-455 454 0
456 57 -58 0
-456 -57 0
-456 58 0
457 48 -194 0
-457 -48 0
-457 194 0
458 229 -240 0
-458 -229 0
-458 240 0
459 195 -458 0
-459 -195 0
-459 458 0
460 212 457 0
-460 -212 0
-460 -457 0
461 -459 -460 0
-461 459 0
-461 460 0
462 -31 40 0
-462 31 0
-462 -40 0
463 -60 -462 0
-463 60 0
-463 462 0
464 -54 443 0
-464 54 0
-464 -443 0
465 1 -59 0
-465 -1 0
-465 59 0
466 -187 -465 0
-466 187 0
-466 465 0
467 -456 -466 0
-467 456 0
-467 466 0
468 -463 -467 0
-468 463 0
-468 467 0
469 222 -468 0
-469 -222 0
-469 468 0
470 -455 -469 0
-470 455 0
-470 469 0
471 -220 -470 0
-471 220 0
-471 470 0
472 278 -471 0
-472 -278 0
-472 471 0
473 -461 -472 0
-473 461 0
-473 472 0
474 -214 -473 0
-474 214 0
-474 473 0
475 -210 -474 0
-475 210 0
-475 474 0
476 208 -475 0
-476 -208 0
-476 475 0
477 444 464 0
-477 -444 0
-477 -464 0
478 -476 -477 0
-478 476 0
-478 477 0
479 147 478 0
-479 -147 0
-479 -478 0
480 442 -479 0
-480 -442 0
-480 479 0
481 184 480 0
-481 -184 0
-481 -480 0
482 -1 272 0
-482 1 0
-482 -272 0
483 -272 440 0
-483 272 0
-483 -440 0
484 268 -272 0
-484 -268 0
-484 272 0
485 -58 206 0
-485 58 0
-485 -206 0
486 59 485 0
-486 -59 0
-486 -485 0
487 271 -463 0
-487 -271 0
-487 463 0
488 486 -487 0
-488 -486 0
-488 487 0
489 -83 488 0
-489 83 0
-489 -488 0
490 83 -488 0
-490 -83 0
-490 488 0
491 489 490 0
-491 -489 0
-491 -490 0
492 -57 58 0
-492 57 0
-492 -58 0
493 -82 -492 0
-493 82 0
-493 492 0
494 456 493 0
-494 -456 0
-494 -493 0
495 -187 494 0
-495 187 0
-495 -494 0
496 444 -495 0
-496 -444 0
-496 495 0
497 204 -496 0
-497 -204 0
-497 496 0
498 491 -497 0
-498 -491 0
-498 497 0
499 84 498 0
-499 -84 0
-499 -498 0
500 -84 -498 0
-500 84 0
-500 498 0
501 -220 225 0
-501 220 0
-501 -225 0
502 -461 -501 0
-502 461 0
-502 501 0
503 -214 -502 0
-503 214 0
-503 502 0
504 -210 -503 0
-504 210 0
-504 503 0
505 -250 -504 0
-505 250 0
-505 504 0
506 208 -505 0
-506 -208 0
-506 505 0
507 499 -506 0
-507 -499 0
-507 506 0
508 500 -507 0
-508 -500 0
-508 507 0
509 85 508 0
-509 -85 0
-509 -508 0
510 -85 -508 0
-510 85 0
-510 508 0
511 -455 509 0
-511 455 0
-511 -509 0
512 510 -511 0
-512 -510 0
-512 511 0
513 484 512 0
-513 -484 0
-513 -512 0
514 87 513 0
-514 -87 0
-514 -513 0
515 -87 -513 0
-515 87 0
-515 513 0
516 483 514 0
-516 -483 0
-516 -514 0
517 515 -516 0
-517 -515 0
-517 516 0
518 433 517 0
-518 -433 0
-518 -517 0
519 -88 -518 0
-519 88 0
-519 518 0
520 88 518 0
-520 -88 0
-520 -518 0
521 482 519 0
-521 -482 0
-521 -519 0
522 520 -521 0
-522 -520 0
-522 521 0
523 402 522 0
-523 -402 0
-523 -522 0
524 89 523 0
-524 -89 0
-524 -523 0
525 -89 -523 0
-525 89 0
-525 523 0
526 524 525 0
-526 -524 0
-526 -525 0
527 -481 -526 0
-527 481 0
-527 526 0
528 481 526 0
-528 -481 0
-528 -526 0
529 438 439 0
-529 -438 0
-529 -439 0
530 527 -529 0
-530 -527 0
-530 529 0
531 528 -530 0
-531 -528 0
-531 530 0
90 531 0
-90 -531 0
90 0
